100 997
585 194 426 606 348 516 521 1092 422 749 895 337 143 557 945 915 1055 546 352 522 109 891 1001 459 222 767 194 698 838 107 674 644 815 434 982 866 467 1094 1084 993 399 733 533 231 782 528 172 800 974 717 238 974 956 820 245 519 1095 894 629 296 299 1097 377 216 197 1008 819 639 342 807 207 669 222 637 170 1031 198 826 700 587 745 872 367 613 1072 181 995 1043 313 158 848 403 587 864 1023 636 129 824 774 889 
485 94 326 506 248 416 421 992 322 649 795 237 43 457 845 815 955 446 252 422 9 791 901 359 122 667 94 598 738 7 574 544 715 334 882 766 367 994 984 893 299 633 433 131 682 428 72 700 874 617 138 874 856 720 145 419 995 794 529 196 199 997 277 116 97 908 719 539 242 707 107 569 122 537 70 931 98 726 600 487 645 772 267 513 972 81 895 943 213 58 748 303 487 764 923 536 29 724 674 789 
